<number of tasks>
20


<number of equipment>
5


<cycle time>
1000


<investment costs>
1,28708
2,25351
3,16336
4,16406
5,22087


<task times>
1,335,373,-1,-1,405
2,354,-1,469,-1,393
3,306,-1,-1,443,-1
4,387,-1,-1,480,-1
5,445,-1,512,-1,426
6,349,379,-1,-1,411
7,386,-1,505,-1,452
8,428,389,-1,-1,415
9,320,-1,481,-1,411
10,313,-1,-1,600,-1
11,350,-1,506,-1,448
12,295,319,-1,-1,390
13,485,513,-1,-1,488
14,420,-1,504,-1,418
15,362,-1,417,-1,401
16,305,-1,496,-1,405
17,366,467,-1,-1,464
18,334,-1,473,-1,432
19,374,-1,496,-1,488
20,434,355,-1,-1,451


<precedence relations>
1,4
1,5
2,3
2,4
2,5
3,6
4,9
5,6
5,7
6,8
6,9
6,10
7,8
7,9
8,14
9,11
10,14
10,15
11,12
11,13
11,14
11,15
12,16
12,17
14,16
14,17
15,16
15,18
16,20
17,18
18,19
18,20


<task types>
1,2
2,3
3,1
4,1
5,3
6,2
7,3
8,2
9,3
10,1
11,3
12,2
13,2
14,3
15,3
16,3
17,2
18,3
19,3
20,2


<line depot>
1,3
2,0
3,3
4,0
5,4


<processing costs>
1,21600
2,7200
3,7200
4,7200
5,14400


<saving costs>
1,2870
2,2535
3,1633
4,1640
5,2208


<end>
